&bands
   outdir = '../out/',
   prefix='BiSBr',
   filband='BiSBr.band',
   lsym=.true.
/
