&bands
   outdir = '../',
   prefix='BiSBr',
   filband='BiSBr.band',
   lsym=.true.
/
