&dos
   outdir = '../out/',
   prefix='BiSBr',
   fildos='BiSBr.dos',
/
