&dos
   outdir = '../',
   prefix='BiSBr',
   fildos='BiSBr.dos',
/
