&CONTROL
/
&SYSTEM
   ntyp             = 3
   nat              = 12
   ibrav            = 0
/
&ELECTRONS
/
&IONS
/
&CELL
/

ATOMIC_SPECIES
Bi 208.9804 Bi.pbe-dn-kjpaw_psl.1.0.0.UPF
S 32.06 S.pbe-n-kjpaw_psl.1.0.0.UPF
Br 79.904 Br.pbe-n-kjpaw_psl.1.0.0.UPF

K_POINTS gamma

CELL_PARAMETERS angstrom
4.08866300000000 0.00000000000000 0.00000000000000
0.00000000000000 8.46763900000000 0.00000000000000
0.00000000000000 0.00000000000000 10.57737500000000

ATOMIC_POSITIONS angstrom
Bi 1.0221657500 3.2507266121 3.8948962189 
Bi 3.0664972500 5.2169123879 6.6824787811 
Bi 1.0221657500 7.4845461121 1.3937912811 
Bi 3.0664972500 0.9830928879 9.1835837189 
S 3.0664972500 2.7940753085 5.6903210061 
S 1.0221657500 1.4397441915 0.4016335061 
S 3.0664972500 7.0278948085 10.1757414939 
S 1.0221657500 5.6735636915 4.8870539939 
Br 1.0221657500 4.0076149918 8.5735653479 
Br 3.0664972500 0.2262045082 3.2848778479 
Br 1.0221657500 8.2414344918 7.2924971521 
Br 3.0664972500 4.4600240082 2.0038096521 

