&CONTROL
calculation='bands'
restart_mode='from_scratch'
prefix='SbOCl'
outdir='../'
pseudo_dir='./pseudo'
/
&SYSTEM
  input_dft = "vdw-df"
  ntyp             = 3
  nat              = 6
  ibrav            = 0
  occupations='fixed'
  ecutwfc=50
  ecutrho=400
  nbnds=36
/
&ELECTRONS
/
&IONS
/
&CELL
/
K_POINTS crystal
12
0.0 0.0 0.0 20 ! Γ
0.0 0.5 0.0 20 ! X
0.5 0.5 0.0 20 ! M
0.0 0.0 0.0 20 ! Γ
0.0 0.0 0.5 20 ! Z
0.0 0.5 0.5 20 ! R
0.5 0.5 0.5 20 ! A
0.0 0.0 0.5 20 ! Z
0.0 0.5 0.0 20 ! X
0.0 0.5 0.5 20 ! R
0.5 0.5 0.0 20 ! M
0.5 0.5 0.5 20 ! A

CELL_PARAMETERS angstrom
3.79107200000000 0.00000000000000 0.00000000000000
0.00000000000000 3.79107200000000 0.00000000000000
0.00000000000000 0.00000000000000 7.91690900000000

ATOMIC_SPECIES
Sb 121.76 None
Cl 35.45 None
O   15.99900   O.pbe-n-kjpaw_psl.1.0.0.UPF

ATOMIC_POSITIONS (angstrom)
Sb 0.0000000000 1.8955360000 6.6742313788 
Sb 1.8955360000 0.0000000000 1.2426776212 
Cl 1.8955360000 0.0000000000 5.2959529403 
Cl 0.0000000000 1.8955360000 2.6209560597 
O 0.0000000000 0.0000000000 0.0000000000 
O 1.8955360000 1.8955360000 0.0000000000 

