&bands
   outdir = '../',
   prefix='SbOBr',
   filband='SbOBr.band',
   lsym=.true.
/
