&bands
   outdir = '../out/',
   prefix='SbOBr',
   filband='SbOBr.band',
   lsym=.true.
/
