&dos
   outdir = '../out/',
   prefix='SbOBr',
   fildos='SbOBr.dos',
/
