&dos
   outdir = '../',
   prefix='SbOBr',
   fildos='SbOBr.dos',
/
