&bands
   outdir = '../',
   prefix='BiSCl',
   filband='BiSCl.band',
   lsym=.true.
/
