&bands
   outdir = '../out/',
   prefix='BiSCl',
   filband='BiSCl.band',
   lsym=.true.
/
