&CONTROL
/
&SYSTEM
   ntyp             = 3
   nat              = 12
   ibrav            = 0
/
&ELECTRONS
/
&IONS
/
&CELL
/

ATOMIC_SPECIES
Bi 208.9804 None
S 32.06 None
Cl 35.45 None

K_POINTS gamma

CELL_PARAMETERS angstrom
4.02616000000000 0.00000000000000 0.00000000000000
0.00000000000000 8.04963700000000 0.00000000000000
0.00000000000000 0.00000000000000 10.49309400000000

ATOMIC_POSITIONS angstrom
Bi 1.0065400000 4.9992190092 6.6500612811 
Bi 3.0196200000 3.0504179908 3.8430327189 
Bi 1.0065400000 0.9744005092 9.0895797189 
Bi 3.0196200000 7.0752364908 1.4035142811 
S 3.0196200000 5.4731816358 4.8422480882 
S 1.0065400000 6.6012738642 10.0887950882 
S 3.0196200000 1.4483631358 0.4042989118 
S 1.0065400000 2.5764553642 5.6508459118 
Cl 1.0065400000 4.2512064910 2.1358902699 
Cl 3.0196200000 7.8232490090 7.3824372699 
Cl 1.0065400000 0.2263879910 3.1106567301 
Cl 3.0196200000 3.7984305090 8.3572037301 

