&dos
   outdir = '../out/',
   prefix='BiSCl',
   fildos='BiSCl.dos',
/
