&dos
   outdir = '../',
   prefix='BiSCl',
   fildos='BiSCl.dos',
/
