&bands
   outdir = '../',
   prefix='BiSI',
   filband='BiSI.band',
   lsym=.true.
/
