&bands
   outdir = '../out/',
   prefix='BiSI',
   filband='BiSI.band',
   lsym=.true.
/
