&dos
   outdir = '../out/',
   prefix='BiSI',
   fildos='BiSI.dos',
/
