&dos
   outdir = '../',
   prefix='BiSI',
   fildos='BiSI.dos',
/
