&CONTROL
 calculation = 'scf'
 prefix = 'BiSI'
 pseudo_dir = './pseudo'
 outdir = '../out'
/
&SYSTEM
  occupations='fixed'
  ecutwfc=50
  ecutrho=400   
   ntyp             = 3
   nat              = 12
   ibrav            = 0
/
&ELECTRONS
/
&IONS
/
&CELL
/

ATOMIC_SPECIES
Bi 208.9804 Bi.pbe-dn-kjpaw_psl.1.0.0.UPF
S 32.06 S.pbe-n-kjpaw_psl.1.0.0.UPF
I 126.90447 I.pbe-n-kjpaw_psl.1.0.0.UPF

K_POINTS {automatic}
2 2 2 1 1 1
CELL_PARAMETERS angstrom
4.20810000000000 0.00000000000000 0.00000000000000
0.00000000000000 8.88705100000000 0.00000000000000
0.00000000000000 0.00000000000000 11.07134200000000

ATOMIC_POSITIONS angstrom
Bi 1.0520250000 3.4666075318 4.1644742220 
Bi 3.1560750000 5.4204434682 6.9068677780 
Bi 1.0520250000 7.9101330318 1.3711967780 
Bi 3.1560750000 0.9769179682 9.7001452220 
S 3.1560750000 3.0057339540 5.9242086761 
S 1.0520250000 1.4377915460 0.3885376761 
S 3.1560750000 7.4492594540 10.6828043239 
S 1.0520250000 5.8813170460 5.1471333239 
I 1.0520250000 4.2550489224 9.0444782060 
I 3.1560750000 0.1884765776 3.5088072060 
I 1.0520250000 8.6985744224 7.5625347940 
I 3.1560750000 4.6320020776 2.0268637940 

